
  22    4
  10   10   10   10

   0   0   0   0   0   3 2 3 4 
   4  10  10  10  10   3 11 6 5 
  10  10  10  10  10   2 14 7 
  10  10  10  10  10   2 8 6 
   5  10  10  10  10   3 12 9 8 
   2  10  10  10  10   3 14 12 9 
   5  10  10  10  10   2 11 9 
   1  10  10  10  10   2 14 10 
   3  10  10  10  10   1 10 
   3  10  10  10  10   4 17 16 15 13 
   7  10  10  10  10   2 16 12 
   7  10  10  10  10   3 21 20 15 
   9  10  10  10  10   4 21 20 19 18 
  10  10  10  10  10   3 21 19 18 
   8  10  10  10  10   2 19 18 
   9  10  10  10  10   2 20 18 
   6  10  10  10  10   2 19 18 
   9  10  10  10  10   1 22
   8  10  10  10  10   1 22
   1  10  10  10  10   1 22
   9  10  10  10  10   1 22
   0   0   0   0   0   0 
